CONTCAR\(6)                             
   1.00000000000000     
     2.8062744365825072    2.7531968242395100    0.0000000000000000
    -5.3921238784882322    5.4960761489572612   11.1752003910492093
    13.8407518292650966  -14.1075813031557935   13.6165244675557346
   Ni   I 
     4     8
Direct
  0.0000000000000000  0.0003162474519343  0.5000363474952820
  0.5000000000000000  0.2496837525480657  0.4999636525047180
  0.0000000000000000  0.5003162474519343  0.5000363474952820
  0.5000000000000000  0.7496837525480657  0.4999636525047180
  0.0000000000000000  0.1665007779154379  0.5647796808979564
  0.5000000000000000  0.4166294897205418  0.5648434060338303
  0.0000000000000000  0.6665007779154379  0.5647796808979564
  0.5000000000000000  0.9166294897205418  0.5648434060338303
  0.5000000000000000  0.0834992220845621  0.4352203591020398
  0.0000000000000000  0.3333705102794582  0.4351566339661659
  0.5000000000000000  0.5834992220845621  0.4352203591020398
  0.0000000000000000  0.8333705102794582  0.4351566339661659
 
  0.00000000E+00  0.00000000E+00  0.00000000E+00
  0.00000000E+00  0.00000000E+00  0.00000000E+00
  0.00000000E+00  0.00000000E+00  0.00000000E+00
  0.00000000E+00  0.00000000E+00  0.00000000E+00
  0.00000000E+00  0.00000000E+00  0.00000000E+00
  0.00000000E+00  0.00000000E+00  0.00000000E+00
  0.00000000E+00  0.00000000E+00  0.00000000E+00
  0.00000000E+00  0.00000000E+00  0.00000000E+00
  0.00000000E+00  0.00000000E+00  0.00000000E+00
  0.00000000E+00  0.00000000E+00  0.00000000E+00
  0.00000000E+00  0.00000000E+00  0.00000000E+00
  0.00000000E+00  0.00000000E+00  0.00000000E+00
