k-points along high symmetry lines
81  !80 intersections
Line-mode
rec
0.0000000000000000000000000 0.0000000000000000000000000 0.0000000000000000000000000 !G 
0.5000000000000000000000000 0.0000000000000000000000000 0.0000000000000000000000000 !X

0.5000000000000000000000000 0.0000000000000000000000000 0.0000000000000000000000000 !X
0.5000000000000000000000000 0.5000000000000000000000000 0.0000000000000000000000000 !S

0.5000000000000000000000000 0.5000000000000000000000000 0.0000000000000000000000000 !S
0.0000000000000000000000000 0.5000000000000000000000000 0.0000000000000000000000000 !Y
    
0.0000000000000000000000000 0.5000000000000000000000000 0.0000000000000000000000000 !Y
0.0000000000000000000000000 0.0000000000000000000000000 0.0000000000000000000000000 !G

